Comps = {frontend0, frontend1, frontend2, backend0, backend1, database0, database1};
mustComps = {frontend0, frontend1, frontend2};
Flavs = {tiny, medium, large};
Nodes = {n1, n2, n3};
CRes = {CPU, RAM, storage, bwIn, bwOut};
NRes = {ssl, fwall, encr, avail, latency};
Flav = [{medium, large}, {medium, large}, {medium, large}, {tiny, medium, large}, {tiny, medium, large}, {large}, {large}];
Uses = [{backend1}, {backend0}, {backend0}, {backend1}, {backend0}, {backend0}, {}, {}, {database0}, {database1}, {database0}, {database1}, {}, {}];
MAX_BOUND = 1000000;

worstBounds = [0, 0, 0, 0, 0, 0, 0, 0, 0, MAX_BOUND];
bestBounds = [MAX_BOUND - i | i in worstBounds];

comReq = array2d(CompFlavs, Res, [
  8, 433, 242, 623, 814, 0, 1, 0, 95, MAX_BOUND,
  4, 458, 268, 261, 654, 1, 0, 0, 96, MAX_BOUND,
  2, 437, 478, 403, 893, 1, 1, 1, 96, MAX_BOUND,
  2, 402, 293, 264, 896, 1, 0, 0, 97, MAX_BOUND,
  4, 256, 232, 866, 300, 0, 0, 1, 95, MAX_BOUND,
  2, 440, 494, 518, 907, 1, 0, 1, 95, MAX_BOUND,
  2, 373, 308, 990, 208, 1, 1, 1, 97, MAX_BOUND,
  2, 455, 344, 683, 387, 1, 0, 0, 97, MAX_BOUND,
  2, 425, 462, 595, 998, 0, 1, 0, 97, MAX_BOUND,
  2, 429, 474, 308, 790, 1, 1, 0, 95, MAX_BOUND,
  4, 321, 229, 721, 504, 1, 0, 1, 96, MAX_BOUND,
  2, 290, 374, 545, 529, 1, 1, 0, 95, MAX_BOUND,
  2, 212, 392, 782, 321, 0, 1, 0, 96, MAX_BOUND,
  2, 362, 416, 673, 599, 1, 1, 1, 95, MAX_BOUND,
]);

nodeCap = array2d(Nodes0, Res, [bestBounds[r] | r in Res] ++ [
  32, 122494, 520453, 24242, 13458, 1, 1, 1, 99, 0,
  16, 126872, 256210, 17178, 16594, 1, 1, 1, 98, 0,
  16, 72921, 537146, 17572, 13483, 1, 1, 1, 98, 0,
]);

cost = array2d(Nodes0, Res, [
  0, 0, 0, 0, 0, 0, 0, 0, 0, 0, % no node
  20, 10, 15, 0, 0, 0, 0, 0, 0, 0,
  13, 7, 21, 0, 0, 0, 0, 0, 0, 0,
  17, 5, 25, 0, 0, 0, 0, 0, 0, 0,
]);

cons = array2d(Nodes0, Res, [
  0, 0, 0, 0, 0, 0, 0, 0, 0, 0, % no node
  9, 36, 36, 0, 0, 0, 0, 0, 0, 0,
  27, 43, 16, 0, 0, 0, 0, 0, 0, 0,
  38, 31, 44, 0, 0, 0, 0, 0, 0, 0,
]);

costWeight = 0;
consWeight = 1;

costBudget = 67820;
consBudget = 35921;

depReq = array3d(Comps, Comps, Res, [
  if c1 = frontend2 /\ c2 = backend0 /\ r = N(avail) then
    96
  elseif c1 = frontend0 /\ c2 = backend0 /\ r = N(avail) then
    95
  elseif c1 = frontend2 /\ c2 = backend1 /\ r = N(avail) then
    97
  elseif c1 = frontend0 /\ c2 = backend1 /\ r = N(avail) then
    96
  elseif c1 = frontend1 /\ c2 = backend1 /\ r = N(avail) then
    97
  elseif c1 = frontend1 /\ c2 = backend0 /\ r = N(avail) then
    95
  else
    worstBounds[r]
  endif | c1 in Comps, c2 in Comps, r in Res]);

linkCap = array3d(Nodes0, Nodes0, Res, [
  if ni = 0 \/ nj = 0 then
    bestBounds[r]
  elseif ni = nj /\ r = N(avail) then
    nodeCap[ni,r]
  elseif {ni, nj} = {n1, n3} /\ r = N(avail) then
    98
  elseif {ni, nj} = {n1, n2} /\ r = N(avail) then
    98
  elseif {ni, nj} = {n2, n3} /\ r = N(avail) then
    99
  else
    worstBounds[r]
  endif | ni in Nodes0, nj in Nodes0, r in Res]);

imp = array2d(Comps, Flavs, [
  2, 3, 10,
  1, 5, 8,
  1, 3, 7,
  1, 2, 8,
  1, 7, 9,
  3, 6, 7,
  4, 5, 8,
]);

